NAME : single.5700.tour
COMMENT : Length = 5700
COMMENT : Found by LKH [Keld Helsgaun] Fri Apr 29 12:11:08 2022
TYPE : TOUR
DIMENSION : 51
TOUR_SECTION
1
6
18
17
10
21
34
9
27
40
3
41
42
4
43
29
5
38
39
7
30
14
8
15
22
19
31
35
46
36
37
44
16
32
11
24
50
48
23
45
49
47
13
12
20
51
33
25
28
2
26
-1
EOF
